c CNF file corresponding to a (partial) station packing problem.
p cnf 6333 213
1 2 3 4 5 6 7 8 9 10 11 12 13 14 0
-1 -2 0
-1 -3 0
-1 -4 0
-1 -5 0
-1 -6 0
-1 -7 0
-1 -8 0
-1 -9 0
-1 -10 0
-1 -11 0
-1 -12 0
-1 -13 0
-1 -14 0
-2 -3 0
-2 -4 0
-2 -5 0
-2 -6 0
-2 -7 0
-2 -8 0
-2 -9 0
-2 -10 0
-2 -11 0
-2 -12 0
-2 -13 0
-2 -14 0
-3 -4 0
-3 -5 0
-3 -6 0
-3 -7 0
-3 -8 0
-3 -9 0
-3 -10 0
-3 -11 0
-3 -12 0
-3 -13 0
-3 -14 0
-4 -5 0
-4 -6 0
-4 -7 0
-4 -8 0
-4 -9 0
-4 -10 0
-4 -11 0
-4 -12 0
-4 -13 0
-4 -14 0
-5 -6 0
-5 -7 0
-5 -8 0
-5 -9 0
-5 -10 0
-5 -11 0
-5 -12 0
-5 -13 0
-5 -14 0
-6 -7 0
-6 -8 0
-6 -9 0
-6 -10 0
-6 -11 0
-6 -12 0
-6 -13 0
-6 -14 0
-7 -8 0
-7 -9 0
-7 -10 0
-7 -11 0
-7 -12 0
-7 -13 0
-7 -14 0
-8 -9 0
-8 -10 0
-8 -11 0
-8 -12 0
-8 -13 0
-8 -14 0
-9 -10 0
-9 -11 0
-9 -12 0
-9 -13 0
-9 -14 0
-10 -11 0
-10 -12 0
-10 -13 0
-10 -14 0
-11 -12 0
-11 -13 0
-11 -14 0
-12 -13 0
-12 -14 0
-13 -14 0
6318 6319 6320 6321 6322 6323 6324 6325 6326 6327 6328 6329 6330 6331 6332 6333 0
-6318 -6319 0
-6318 -6320 0
-6318 -6321 0
-6318 -6322 0
-6318 -6323 0
-6318 -6324 0
-6318 -6325 0
-6318 -6326 0
-6318 -6327 0
-6318 -6328 0
-6318 -6329 0
-6318 -6330 0
-6318 -6331 0
-6318 -6332 0
-6318 -6333 0
-6319 -6320 0
-6319 -6321 0
-6319 -6322 0
-6319 -6323 0
-6319 -6324 0
-6319 -6325 0
-6319 -6326 0
-6319 -6327 0
-6319 -6328 0
-6319 -6329 0
-6319 -6330 0
-6319 -6331 0
-6319 -6332 0
-6319 -6333 0
-6320 -6321 0
-6320 -6322 0
-6320 -6323 0
-6320 -6324 0
-6320 -6325 0
-6320 -6326 0
-6320 -6327 0
-6320 -6328 0
-6320 -6329 0
-6320 -6330 0
-6320 -6331 0
-6320 -6332 0
-6320 -6333 0
-6321 -6322 0
-6321 -6323 0
-6321 -6324 0
-6321 -6325 0
-6321 -6326 0
-6321 -6327 0
-6321 -6328 0
-6321 -6329 0
-6321 -6330 0
-6321 -6331 0
-6321 -6332 0
-6321 -6333 0
-6322 -6323 0
-6322 -6324 0
-6322 -6325 0
-6322 -6326 0
-6322 -6327 0
-6322 -6328 0
-6322 -6329 0
-6322 -6330 0
-6322 -6331 0
-6322 -6332 0
-6322 -6333 0
-6323 -6324 0
-6323 -6325 0
-6323 -6326 0
-6323 -6327 0
-6323 -6328 0
-6323 -6329 0
-6323 -6330 0
-6323 -6331 0
-6323 -6332 0
-6323 -6333 0
-6324 -6325 0
-6324 -6326 0
-6324 -6327 0
-6324 -6328 0
-6324 -6329 0
-6324 -6330 0
-6324 -6331 0
-6324 -6332 0
-6324 -6333 0
-6325 -6326 0
-6325 -6327 0
-6325 -6328 0
-6325 -6329 0
-6325 -6330 0
-6325 -6331 0
-6325 -6332 0
-6325 -6333 0
-6326 -6327 0
-6326 -6328 0
-6326 -6329 0
-6326 -6330 0
-6326 -6331 0
-6326 -6332 0
-6326 -6333 0
-6327 -6328 0
-6327 -6329 0
-6327 -6330 0
-6327 -6331 0
-6327 -6332 0
-6327 -6333 0
-6328 -6329 0
-6328 -6330 0
-6328 -6331 0
-6328 -6332 0
-6328 -6333 0
-6329 -6330 0
-6329 -6331 0
-6329 -6332 0
-6329 -6333 0
-6330 -6331 0
-6330 -6332 0
-6330 -6333 0
-6331 -6332 0
-6331 -6333 0
-6332 -6333 0
